Water Network: 9
Results smooth approximation 1 of Hazen--Williams headloss constraint

*******************************************************************************
wdnmodel.mod

-------------------------------- Solving with gurobi --------------------------
Gurobi 12.0.1: Set parameter LogToConsole to value 1
  tech:outlev = 1
Set parameter Presolve to value 1
  pre:solve = 1
Set parameter TimeLimit to value 600
  lim:time = 600
  alg:start = 0
Set parameter Method to value 1
  alg:method = 1
Set parameter MIPGapAbs to value 1e-06
  mip:gapabs = 1e-06
Set parameter MIPGap to value 1e-09
  mip:gap = 1e-09
Set parameter BarConvTol to value 1e-09
  bar:convtol = 1e-09
  sol:chk:feastol = 1e-05
  sol:chk:feastolrel = 1e-09
Set parameter NumericFocus to value 1
  alg:numericfocus = 1
  tech:optionfile = gurobiOpt.prm

AMPL MP initial flat model has 500 variables (0 integer, 0 binary);
Objectives: 1 linear; 
Constraints:  94 linear; 174 quadratic;
Algebraic expressions:  58 powconstexp;

AMPL MP final model has 732 variables (0 integer, 0 binary);
Objectives: 1 linear; 
Constraints:  152 linear; 174 quadratic;
Algebraic expressions:  58 powconstexp;


Set parameter InfUnbdInfo to value 1
Gurobi Optimizer version 12.0.1 build v12.0.1rc0 (linux64 - "Debian GNU/Linux 12 (bookworm)")

CPU model: INTEL(R) XEON(R) GOLD 6530, instruction set [SSE2|AVX|AVX2|AVX512]
Thread count: 32 physical cores, 64 logical processors, using up to 32 threads

Non-default parameters:
TimeLimit  600
MIPGap  1e-09
MIPGapAbs  1e-06
Method  1
BarConvTol  1e-09
InfUnbdInfo  1
NumericFocus  1
Presolve  1

Optimize a model with 152 rows, 732 columns and 694 nonzeros
Model fingerprint: 0xc3aee6a8
Model has 58 general nonlinear constraints (1624 nonlinear terms)
Variable types: 732 continuous, 0 integer (0 binary)
Coefficient statistics:
  Matrix range     [1e+00, 1e+00]
  Objective range  [7e+03, 1e+05]
  Bounds range     [5e-13, 2e+03]
  RHS range        [3e-04, 4e+02]
Presolve model has 58 nlconstr
Added 986 variables to disaggregate expressions.
Presolve removed 1 rows and 175 columns
Presolve time: 0.03s
Presolved: 2993 rows, 1602 columns, 6782 nonzeros
Presolved model has 522 bilinear constraint(s)
Presolved model has 58 nonlinear constraint(s)

Solving non-convex MINLP

Variable types: 1602 continuous, 0 integer (0 binary)

Root relaxation: objective 5.791638e+07, 990 iterations, 0.08 seconds (0.03 work units)

    Nodes    |    Current Node    |     Objective Bounds      |     Work
 Expl Unexpl |  Obj  Depth IntInf | Incumbent    BestBd   Gap | It/Node Time

     0     0 5.7916e+07    0  159          - 5.7916e+07      -     -    4s
     0     0 5.7916e+07    0  159          - 5.7916e+07      -     -    4s
     0     2 5.7916e+07    0  159          - 5.7916e+07      -     -    8s
    89    86 5.8716e+07    6  165          - 5.7916e+07      -  23.3   10s
  1764  1767 5.7916e+07   14  150          - 5.7916e+07      -  44.8   15s
  7178  5809 6.1136e+07   28    0          - 5.7916e+07      -  33.1   20s
  7182  5814 5.7916e+07   12  162          - 5.7916e+07      -  33.3   28s
  7869  6460 6.0511e+07   27  153          - 5.7916e+07      -  32.5   30s
 13203  8962 5.7932e+07   37  155          - 5.7916e+07      -  31.9   39s
 13245  9326 6.2567e+07   36  151          - 5.7916e+07      -  32.1   40s
 21367 13341 5.8324e+07   73  146          - 5.7916e+07      -  30.3   45s
 28206 17579 5.8741e+07   35  152          - 5.7916e+07      -  33.1   50s
 34147 22607 5.8630e+07   55  138          - 5.7916e+07      -  35.0   55s
 40722 27831 5.8681e+07   37  137          - 5.7916e+07      -  36.0   60s
 46565 31747 6.5344e+07   55  144          - 5.7916e+07      -  37.9   65s
 50578 34545 8.8033e+07   97  118          - 5.7916e+07      -  39.9   70s
 57269 39433 7.4944e+07   71  145          - 5.7916e+07      -  42.7   76s
 61161 42479 6.1000e+07   44  148          - 5.7916e+07      -  44.1   81s
 65836 45569 6.2386e+07   75  122          - 5.7916e+07      -  45.0   85s
 70521 49150 infeasible   87               - 5.7916e+07      -  45.9   90s
 76071 52898 1.1931e+08  130  133          - 5.7916e+07      -  46.7   97s
 78882 54718 1.2072e+08  175  127          - 5.7916e+07      -  47.2  100s
 85086 59217 6.0414e+07   57  141          - 5.7916e+07      -  47.6  106s
 91602 63263 5.7916e+07   37  145          - 5.7916e+07      -  48.3  112s
 94397 63302 6.6170e+07   51  123          - 5.7916e+07      -  49.3  116s
 98179 68543 infeasible   59               - 5.7916e+07      -  49.1  123s
 101893 70379 infeasible   78               - 5.7916e+07      -  49.4  126s
 104733 72718 7.0511e+07   68  146          - 5.7916e+07      -  50.2  130s
 112487 78444 infeasible   56               - 5.7916e+07      -  49.8  137s
